\ This file has been generated by DOcplex
\ ENCODING=ISO-8859-1
\Problem name: 2generals problem

Maximize
 obj: - 6 a0_(0,_0) - 15 a1_(0,_1) - 15 a2_(1,_0) - 12.500000000000 a3_(1,_1)
Subject To
 c1: - 51 a0_(0,_0) - 51 a1_(0,_1) - 55 a2_(1,_0) - 57 a3_(1,_1) + 51 a0_0
     + 55 a0_1 >= 0
 c2: - 51 a0_(0,_0) - 51 a1_(0,_1) - 55 a2_(1,_0) - 57 a3_(1,_1) + 51 a0_0
     + 57 a0_1 >= 0
 c3: a0_(0,_0) + a1_(0,_1) - a0_0 = 0
 c4: a2_(1,_0) + a3_(1,_1) - a0_1 = 0
 c5: a0_(0,_0) + a1_(0,_1) + a2_(1,_0) + a3_(1,_1) = 1
 c6: a0_(0,_0) + a2_(1,_0) - a1_0 = 0
 c7: a1_(0,_1) + a3_(1,_1) - a1_1 = 0

Bounds
       a0_0 <= 1
       a0_1 <= 1
 0 <= a1_0 <= 1
 0 <= a1_1 <= 1
       a0_(0,_0) <= 1
       a1_(0,_1) <= 1
       a2_(1,_0) <= 1
       a3_(1,_1) <= 1

Binaries
 a1_0 a1_1
End
